(declare-const a Real)
(declare-const b Real)
(declare-const c Real)
(assert (= (+ a b c) 3))
(assert (not (<= (+ (* (pow (* (pow (+ (pow a 2) (* -1 (pow c 2))) (* a c)) (pow (+ (* (/ 9 32) (pow a 2)) (* (/ 9 32) (pow b 2)) (* (/ 9 32) (pow c 2))) (* (pow 2 (/ 1 2)) (+ (pow a 2) (pow b 2) (pow c 2))))) (pow (+ (* a c) (* (pow 2 (/ 1 2)) (+ (pow a 2) (pow b 2) (pow c 2)))) -1)) (+ (* (pow 2 (/ 1 2)) (+ (* -1 (pow a 2)) (* -1 (pow b 2)) (* -1 (pow c 2)))) (* -1 a c))) (* a b (+ (pow a 2) (* -1 (pow b 2)))) (* b c (+ (pow b 2) (* -1 (pow c 2))))) 0)))
(check-sat)
(get-model)
(exit)